c FILE /home/rafael/Documents/HappySet/MIHS/inputs/happygen/output/graph_d_regular_k7_p0.3_v100_20241127_084100.txt
c SOURCE This is a d-regular graph formed for the happy graph colouring problem.
c DESCRIPTION It was generated using the problem generator of Rhyd Lewis
c
c GRAPH STATS
c Seed                             = -711644310
c Number of Nodes                  = 100
c Number of colours k              = 7
c Number of pre-assignments        = 30
c Degree of all vertices           = 6
c Density                          = 0.0606061
c 
c The degrees of nodes 1 to 100, respectively, are as follows 
c [6, 6, 6, 6, 6, 6, 6, 6, 6, 6, 6, 6, 6, 6, 6, 6, 6, 6, 6, 6, 6, 6, 6, 6, 6, 6, 
c  6, 6, 6, 6, 6, 6, 6, 6, 6, 6, 6, 6, 6, 6, 6, 6, 6, 6, 6, 6, 6, 6, 6, 6, 6, 
c  6, 6, 6, 6, 6, 6, 6, 6, 6, 6, 6, 6, 6, 6, 6, 6, 6, 6, 6, 6, 6, 6, 6, 6, 6, 
c  6, 6, 6, 6, 6, 6, 6, 6, 6, 6, 6, 6, 6, 6, 6, 6, 6, 6, 6, 6, 6, 6, 6, 6] 
c  
p edge 100 300 7
e 1 5
e 1 18
e 1 40
e 1 60
e 1 88
e 1 96
e 2 7
e 2 15
e 2 21
e 2 67
e 2 76
e 2 78
e 3 13
e 3 62
e 3 68
e 3 81
e 3 88
e 3 94
e 4 8
e 4 24
e 4 32
e 4 50
e 4 81
e 4 97
e 5 68
e 5 73
e 5 76
e 5 81
e 5 82
e 6 21
e 6 44
e 6 54
e 6 60
e 6 69
e 6 80
e 7 8
e 7 26
e 7 47
e 7 90
e 7 93
e 8 9
e 8 16
e 8 22
e 8 27
e 9 10
e 9 39
e 9 50
e 9 52
e 9 78
e 10 48
e 10 51
e 10 52
e 10 62
e 10 92
e 11 19
e 11 38
e 11 45
e 11 49
e 11 69
e 11 93
e 12 16
e 12 41
e 12 62
e 12 72
e 12 78
e 12 92
e 13 35
e 13 50
e 13 61
e 13 67
e 13 97
e 14 36
e 14 69
e 14 70
e 14 71
e 14 82
e 14 91
e 15 17
e 15 21
e 15 33
e 15 60
e 15 90
e 16 23
e 16 53
e 16 58
e 16 70
e 17 18
e 17 57
e 17 66
e 17 74
e 17 86
e 18 65
e 18 80
e 18 89
e 18 95
e 19 25
e 19 43
e 19 44
e 19 70
e 19 80
e 20 29
e 20 30
e 20 32
e 20 43
e 20 93
e 20 98
e 21 23
e 21 66
e 21 72
e 22 28
e 22 37
e 22 41
e 22 55
e 22 88
e 23 41
e 23 63
e 23 71
e 23 72
e 24 32
e 24 48
e 24 58
e 24 77
e 24 100
e 25 29
e 25 36
e 25 61
e 25 70
e 25 87
e 26 50
e 26 63
e 26 75
e 26 90
e 26 92
e 27 29
e 27 61
e 27 63
e 27 85
e 27 89
e 28 39
e 28 59
e 28 69
e 28 73
e 28 77
e 29 65
e 29 93
e 29 95
e 30 35
e 30 37
e 30 42
e 30 79
e 30 98
e 31 45
e 31 50
e 31 66
e 31 76
e 31 79
e 31 95
e 32 74
e 32 82
e 32 99
e 33 46
e 33 50
e 33 51
e 33 72
e 33 94
e 34 40
e 34 46
e 34 61
e 34 74
e 34 90
e 34 92
e 35 43
e 35 53
e 35 77
e 35 85
e 36 40
e 36 66
e 36 77
e 36 93
e 37 68
e 37 86
e 37 89
e 37 98
e 38 56
e 38 60
e 38 85
e 38 97
e 38 99
e 39 42
e 39 51
e 39 75
e 39 96
e 40 44
e 40 53
e 40 61
e 41 48
e 41 49
e 41 81
e 42 52
e 42 64
e 42 87
e 42 98
e 43 64
e 43 79
e 43 85
e 44 56
e 44 89
e 44 94
e 45 52
e 45 55
e 45 79
e 45 89
e 46 58
e 46 73
e 46 84
e 46 99
e 47 65
e 47 67
e 47 74
e 47 92
e 47 100
e 48 52
e 48 59
e 48 64
e 49 57
e 49 68
e 49 69
e 49 99
e 51 85
e 51 86
e 51 97
e 52 79
e 53 63
e 53 75
e 53 84
e 54 62
e 54 67
e 54 74
e 54 78
e 54 83
e 55 80
e 55 84
e 55 90
e 55 98
e 56 59
e 56 78
e 56 84
e 56 100
e 57 63
e 57 81
e 57 87
e 57 88
e 58 71
e 58 73
e 58 97
e 59 66
e 59 71
e 59 94
e 60 75
e 60 99
e 61 62
e 62 75
e 63 64
e 64 91
e 64 100
e 65 79
e 65 82
e 65 83
e 66 70
e 67 87
e 67 95
e 68 83
e 68 88
e 69 73
e 70 91
e 71 80
e 71 82
e 72 77
e 72 82
e 73 94
e 74 86
e 75 91
e 76 87
e 76 95
e 76 96
e 77 84
e 78 84
e 80 91
e 81 96
e 83 87
e 83 97
e 83 100
e 85 92
e 86 90
e 86 94
e 88 91
e 89 93
e 95 96
e 96 98
e 99 100
n 2 5
n 11 6
n 15 5
n 19 6
n 22 2
n 24 1
n 27 4
n 30 7
n 36 1
n 40 1
n 50 4
n 56 4
n 57 3
n 58 1
n 59 4
n 62 2
n 64 1
n 65 7
n 67 5
n 74 1
n 77 1
n 79 7
n 81 3
n 82 7
n 85 4
n 89 4
n 91 1
n 92 4
n 94 4
n 96 3
